Minimize
  0.1 y_0 + 0.1 y_1 + 0.0769230769230769 y_2 + 0.1 y_3 + 0.1 y_4 + 0.1 y_5
   + 0.125 y_6 + 0.25 y_7 + 0.1111111111111111 y_8 + 0.125 y_9 + 0.5 y_10
   + 0.1666666666666667 y_11 + 0.0666666666666667 y_12
   + 0.1666666666666667 y_13 + 0.125 y_14 + 0.1666666666666667 y_15
   + 0.1 y_16 + 0.0833333333333333 y_17 + 0.2 y_18
   + 0.1428571428571428 y_19 + 0.1111111111111111 y_20
   + 0.1666666666666667 y_21 + 0.1428571428571428 y_22
   + 0.0909090909090909 y_23 + 0.125 y_24 + 0.2 y_25 + 0.1 y_26 + 0.1 y_27
   + 0.2 y_28 + 0.125 y_29 + 0.1428571428571428 y_30 + 0.5 y_31
   + 0.1666666666666667 y_32 + 0.125 y_33 + 0.1666666666666667 y_34
   + 0.0714285714285714 y_35 + 0.1666666666666667 y_36
   + 0.0909090909090909 y_37 + 0.1111111111111111 y_38
   + 0.0714285714285714 y_39 + 0.125 y_40 + 0.125 y_41
   + 0.0769230769230769 y_42 + 0.0909090909090909 y_43
   + 0.1666666666666667 y_44 + 0.2 y_45 + 0.125 y_46 + 0.2 y_47
   + 0.0909090909090909 y_48 + 0.1428571428571428 y_49 + 0.1 y_50
   + 0.2 y_51 + 0.1428571428571428 y_52 + 0.3333333333333333 y_53
   + 0.1666666666666667 y_54 + 0.1666666666666667 y_55 + 0.1 y_56
   + 0.1111111111111111 y_57 + 0.1 y_58 + 0.25 y_59 + 0.125 y_60
   + 0.1666666666666667 y_61 + 0.1111111111111111 y_62
   + 0.0909090909090909 y_63 + 0.1 y_64 + 0.1428571428571428 y_65
   + 0.1428571428571428 y_66 + 0.0909090909090909 y_67 + 0.1 y_68
   + 0.2 y_69 + 0.1 y_70 + 0.0909090909090909 y_71 + 0.25 y_72 + 0.1 y_73
   + 0.1666666666666667 y_74 + 0.1 y_75 + 0.0666666666666667 y_76
   + 0.1428571428571428 y_77 + 0.1666666666666667 y_78
   + 0.0714285714285714 y_79 + 0.125 y_80 + 0.2 y_81
   + 0.1111111111111111 y_82 + 0.1111111111111111 y_83
   + 0.0833333333333333 y_84 + 0.0833333333333333 y_85
   + 0.1428571428571428 y_86 + 0.0714285714285714 y_87
   + 0.0909090909090909 y_88 + 0.1428571428571428 y_89
   + 0.1428571428571428 y_90 + 0.1666666666666667 y_91 + 0.1 y_92
   + 0.0833333333333333 y_93 + 0.0909090909090909 y_94 + 0.125 y_95
   + 0.1111111111111111 y_96 + 0.0909090909090909 y_97 + 0.1 y_98
   + 0.1428571428571428 y_99 + 0.2 y_100 + 0.2 y_101 + 0.2 y_102
   + 0.0833333333333333 y_103 + 0.1666666666666667 y_104 + 0.2 y_105
   + 0.125 y_106 + 0.1 y_107 + 0.0909090909090909 y_108 + y_109
   + 0.25 y_110 + 0.1 y_111 + 0.2 y_112 + 0.2 y_113
   + 0.0833333333333333 y_114 + 0.0833333333333333 y_115
   + 0.1428571428571428 y_116 + 0.0666666666666667 y_117 + 0.2 y_118
   + 0.1 y_119 + 0.0909090909090909 y_120 + 0.1 y_121
   + 0.0769230769230769 y_122 + 0.0833333333333333 y_123 + 0.1 y_124
   + 0.1111111111111111 y_125 + 0.5 y_126 + 0.1111111111111111 y_127
   + 0.0833333333333333 y_128 + 0.1 y_129 + 0.1 y_130
   + 0.0769230769230769 y_131 + 0.2 y_132 + 0.0909090909090909 y_133
   + 0.0909090909090909 y_134 + 0.1111111111111111 y_135
   + 0.1111111111111111 y_136 + 0.3333333333333333 y_137
   + 0.0769230769230769 y_138 + 0.0909090909090909 y_139
   + 0.1111111111111111 y_140 + 0.1428571428571428 y_141
   + 0.0833333333333333 y_142 + 0.0769230769230769 y_143
   + 0.0833333333333333 y_144 + 0.0833333333333333 y_145
   + 0.1666666666666667 y_146 + 0.0833333333333333 y_147
   + 0.0833333333333333 y_148 + 0.1666666666666667 y_149 + 0.1 y_150
   + 0.0909090909090909 y_151 + 0.0909090909090909 y_152
   + 0.0769230769230769 y_153 + 0.0909090909090909 y_154 + 0.1 y_155
   + 0.1111111111111111 y_156 + 0.1666666666666667 y_157
   + 0.0909090909090909 y_158 + 0.2 y_159 + 0.1428571428571428 y_160
   + 0.0666666666666667 y_161 + 0.1 y_162 + 0.1111111111111111 y_163
   + 0.0909090909090909 y_164 + 0.0714285714285714 y_165
   + 0.0833333333333333 y_166 + 0.1 y_167 + 0.0714285714285714 y_168
   + 0.3333333333333333 y_169 + 0.1428571428571428 y_170 + 0.1 y_171
   + 0.1 y_172 + 0.125 y_173 + 0.0909090909090909 y_174
   + 0.1666666666666667 y_175 + 0.0666666666666667 y_176 + 0.1 y_177
   + 0.1428571428571428 y_178 + 0.0909090909090909 y_179 + 0.1 y_180
   + 0.1111111111111111 y_181 + 0.1111111111111111 y_182
   + 0.3333333333333333 y_183 + 0.0769230769230769 y_184
   + 0.1428571428571428 y_185 + 0.3333333333333333 y_186 + 0.125 y_187
   + 0.125 y_188 + 0.1 y_189 + 0.1666666666666667 y_190 + 0.1 y_191
   + 0.1 y_192 + 0.1111111111111111 y_193 + 0.1111111111111111 y_194
   + 0.1428571428571428 y_195 + 0.2 y_196 + 0.1428571428571428 y_197
   + 0.0833333333333333 y_198 + 0.1428571428571428 y_199
   - 27.5217338217338 Constant
Subject To
 c_0: y_133 = 1
 c_1_0: y_0 + y_56 + y_63 + y_92 + y_135 + y_156 >= 1
 c_1_1: y_1 + y_136 + y_155 + y_163 + y_188 >= 1
 c_1_2: y_2 + y_88 + y_133 + y_138 + y_153 >= 1
 c_1_3: y_3 >= 1
 c_1_4: y_4 + y_46 + y_107 + y_134 + y_158 + y_173 + y_181 >= 1
 c_1_5: y_5 + y_50 + y_98 + y_111 + y_124 + y_140 + y_189 + y_194 >= 1
 c_1_6: y_6 + y_9 + y_22 + y_41 + y_46 + y_77 + y_141 + y_173 >= 1
 c_1_7: y_7 + y_13 + y_15 + y_18 + y_47 + y_69 + y_78 + y_101 + y_102
   + y_132 >= 1
 c_1_8: y_8 + y_26 + y_71 + y_191 + y_197 + y_199 >= 1
 c_1_9: y_6 + y_9 + y_21 + y_41 + y_49 + y_62 + y_77 + y_141 + y_182 >= 1
 c_1_10: y_10 + y_31 + y_53 + y_72 + y_109 + y_126 + y_137 + y_186 >= 1
 c_1_11: y_11 + y_19 + y_65 + y_81 + y_101 + y_105 + y_146 + y_178 >= 1
 c_1_12: y_12 + y_39 + y_76 + y_161 + y_165 >= 1
 c_1_13: y_7 + y_13 + y_15 + y_47 + y_55 + y_78 + y_86 + y_102 + y_132
   + y_160 + y_197 + y_199 >= 1
 c_1_14: y_14 + y_40 + y_56 + y_90 + y_96 + y_156 + y_190 >= 1
 c_1_15: y_7 + y_13 + y_15 + y_36 + y_47 + y_55 + y_66 + y_78 + y_86
   + y_101 + y_102 + y_132 + y_146 + y_160 >= 1
 c_1_16: y_16 + y_17 + y_62 + y_67 + y_70 + y_75 + y_94 + y_144 + y_154
   + y_171 + y_182 + y_193 >= 1
 c_1_17: y_16 + y_17 + y_67 + y_94 + y_144 + y_171 >= 1
 c_1_18: y_7 + y_18 + y_32 + y_44 + y_55 + y_69 + y_78 + y_100 + y_132
   >= 1
 c_1_19: y_11 + y_19 + y_36 + y_65 + y_66 + y_99 + y_140 + y_146 + y_160
   + y_178 + y_194 >= 1
 c_1_20: y_20 + y_38 + y_83 + y_108 + y_119 + y_129 >= 1
 c_1_21: y_9 + y_21 + y_25 + y_49 + y_74 + y_175 >= 1
 c_1_22: y_6 + y_22 + y_46 + y_77 + y_106 + y_112 + y_141 + y_173 >= 1
 c_1_23: y_23 + y_48 + y_93 + y_115 + y_121 + y_152 + y_166 + y_174 + y_184
   + y_198 >= 1
 c_1_24: y_24 + y_29 + y_57 + y_127 + y_150 >= 1
 c_1_25: y_21 + y_25 + y_49 + y_74 + y_91 + y_175 >= 1
 c_1_26: y_8 + y_26 + y_27 + y_120 + y_130 + y_177 >= 1
 c_1_27: y_26 + y_27 + y_130 + y_172 + y_177 >= 1
 c_1_28: y_28 + y_104 + y_118 + y_149 + y_157 + y_170 + y_195 >= 1
 c_1_29: y_24 + y_29 + y_65 >= 1
 c_1_30: y_30 + y_32 + y_60 + y_91 + y_185 >= 1
 c_1_31: y_10 + y_31 + y_109 + y_126 + y_169 >= 1
 c_1_32: y_18 + y_30 + y_32 + y_44 + y_69 + y_100 >= 1
 c_1_33: y_33 + y_52 + y_54 + y_82 + y_89 + y_116 + y_135 + y_187 >= 1
 c_1_34: y_34 + y_40 + y_61 + y_80 + y_90 + y_104 + y_159 + y_170 + y_195
   >= 1
 c_1_35: y_35 + y_79 + y_117 + y_176 >= 1
 c_1_36: y_15 + y_19 + y_36 + y_47 + y_66 + y_81 + y_99 + y_101 + y_102
   + y_146 + y_160 + y_178 >= 1
 c_1_37: y_37 + y_71 + y_88 + y_191 >= 1
 c_1_38: y_20 + y_38 + y_43 + y_64 + y_70 + y_83 + y_108 + y_129 + y_193
   >= 1
 c_1_39: y_12 + y_39 + y_42 + y_76 + y_161 + y_165 >= 1
 c_1_40: y_14 + y_34 + y_40 + y_80 + y_90 + y_96 + y_195 >= 1
 c_1_41: y_6 + y_9 + y_41 + y_62 + y_77 + y_141 + y_182 >= 1
 c_1_42: y_39 + y_42 + y_76 + y_123 + y_134 + y_161 + y_165 >= 1
 c_1_43: y_38 + y_43 + y_64 + y_70 + y_108 + y_129 + y_145 + y_151 + y_154
   >= 1
 c_1_44: y_18 + y_32 + y_44 + y_55 + y_69 + y_100 + y_197 + y_199 >= 1
 c_1_45: y_45 + y_53 + y_54 + y_59 + y_72 + y_89 + y_105 + y_113 >= 1
 c_1_46: y_4 + y_6 + y_22 + y_46 + y_106 + y_173 + y_181 >= 1
 c_1_47: y_7 + y_13 + y_15 + y_36 + y_47 + y_78 + y_101 + y_102 + y_132
   >= 1
 c_1_48: y_23 + y_48 + y_93 + y_115 + y_119 + y_121 + y_142 + y_151 + y_152
   >= 1
 c_1_49: y_9 + y_21 + y_25 + y_49 + y_74 + y_175 >= 1
 c_1_50: y_5 + y_50 + y_73 + y_98 + y_111 + y_114 + y_124 + y_133 + y_140
   + y_189 + y_194 >= 1
 c_1_51: y_51 + y_112 + y_118 + y_149 >= 1
 c_1_52: y_33 + y_52 + y_54 + y_89 + y_116 + y_187 + y_188 >= 1
 c_1_53: y_10 + y_45 + y_53 + y_59 + y_72 + y_113 + y_126 + y_186 >= 1
 c_1_54: y_33 + y_45 + y_52 + y_54 + y_89 + y_113 + y_116 + y_187 + y_196
   >= 1
 c_1_55: y_13 + y_15 + y_18 + y_44 + y_55 + y_69 + y_78 + y_132 + y_197
   + y_199 >= 1
 c_1_56: y_0 + y_14 + y_56 + y_68 + y_92 + y_96 + y_156 + y_162 + y_192
   >= 1
 c_1_57: y_24 + y_57 + y_127 + y_136 + y_150 + y_163 >= 1
 c_1_58: y_58 + y_63 + y_82 + y_84 + y_128 + y_135 >= 1
 c_1_59: y_45 + y_53 + y_59 + y_81 + y_105 >= 1
 c_1_60: y_30 + y_60 + y_167 + y_180 + y_185 >= 1
 c_1_61: y_34 + y_61 + y_90 + y_104 + y_110 + y_159 + y_190 + y_195 >= 1
 c_1_62: y_9 + y_16 + y_41 + y_62 + y_75 + y_94 + y_171 + y_182 + y_193
   >= 1
 c_1_63: y_0 + y_58 + y_63 + y_84 + y_92 >= 1
 c_1_64: y_38 + y_43 + y_64 + y_67 + y_70 + y_83 + y_108 + y_129 + y_145
   + y_154 + y_182 + y_193 >= 1
 c_1_65: y_11 + y_19 + y_29 + y_65 + y_81 + y_99 + y_146 + y_178 >= 1
 c_1_66: y_15 + y_19 + y_36 + y_66 + y_86 + y_99 + y_102 + y_146 + y_160
   + y_178 >= 1
 c_1_67: y_16 + y_17 + y_64 + y_67 + y_70 + y_94 + y_144 + y_154 + y_171
   >= 1
 c_1_68: y_56 + y_68 + y_96 + y_162 + y_192 >= 1
 c_1_69: y_7 + y_18 + y_32 + y_44 + y_55 + y_69 + y_78 + y_100 + y_132
   + y_199 >= 1
 c_1_70: y_16 + y_38 + y_43 + y_64 + y_67 + y_70 + y_83 + y_94 + y_108
   + y_129 + y_145 + y_154 + y_182 + y_193 >= 1
 c_1_71: y_8 + y_37 + y_71 + y_120 + y_191 >= 1
 c_1_72: y_10 + y_45 + y_53 + y_72 + y_110 + y_113 + y_186 + y_196 >= 1
 c_1_73: y_50 + y_73 + y_88 + y_98 + y_111 + y_124 + y_133 + y_189 + y_191
   >= 1
 c_1_74: y_21 + y_25 + y_49 + y_74 + y_91 + y_175 >= 1
 c_1_75: y_16 + y_62 + y_75 + y_94 + y_147 + y_171 >= 1
 c_1_76: y_12 + y_39 + y_42 + y_76 + y_161 + y_165 >= 1
 c_1_77: y_6 + y_9 + y_22 + y_41 + y_77 + y_112 + y_141 + y_173 >= 1
 c_1_78: y_7 + y_13 + y_15 + y_18 + y_47 + y_55 + y_69 + y_78 + y_86
   + y_102 + y_132 + y_160 + y_197 + y_199 >= 1
 c_1_79: y_35 + y_79 + y_117 + y_176 >= 1
 c_1_80: y_34 + y_40 + y_80 + y_95 + y_104 + y_125 + y_170 + y_195 >= 1
 c_1_81: y_11 + y_36 + y_59 + y_65 + y_81 + y_101 + y_146 + y_178 >= 1
 c_1_82: y_33 + y_58 + y_82 + y_116 + y_135 + y_187 >= 1
 c_1_83: y_20 + y_38 + y_64 + y_70 + y_83 + y_108 + y_129 + y_154 + y_182
   + y_193 >= 1
 c_1_84: y_58 + y_63 + y_84 + y_128 + y_168 >= 1
 c_1_85: y_85 + y_107 + y_147 + y_158 >= 1
 c_1_86: y_13 + y_15 + y_66 + y_78 + y_86 + y_99 + y_102 + y_160 >= 1
 c_1_87: y_87 + y_122 + y_131 >= 1
 c_1_88: y_2 + y_37 + y_73 + y_88 + y_98 + y_111 + y_124 + y_133 + y_138
   + y_153 + y_191 >= 1
 c_1_89: y_33 + y_45 + y_52 + y_54 + y_89 + y_113 + y_116 + y_187 + y_188
   >= 1
 c_1_90: y_14 + y_34 + y_40 + y_61 + y_90 + y_159 + y_190 + y_195 >= 1
 c_1_91: y_25 + y_30 + y_74 + y_91 + y_185 >= 1
 c_1_92: y_0 + y_56 + y_63 + y_92 + y_156 >= 1
 c_1_93: y_23 + y_48 + y_93 + y_115 + y_119 + y_142 + y_151 + y_152 >= 1
 c_1_94: y_16 + y_17 + y_62 + y_67 + y_70 + y_75 + y_94 + y_144 + y_154
   + y_171 + y_182 + y_193 >= 1
 c_1_95: y_80 + y_95 + y_104 + y_170 + y_195 >= 1
 c_1_96: y_14 + y_40 + y_56 + y_68 + y_96 + y_156 + y_162 + y_192 >= 1
 c_1_97: y_97 >= 1
 c_1_98: y_5 + y_50 + y_73 + y_88 + y_98 + y_111 + y_114 + y_124 + y_133
   + y_140 + y_189 >= 1
 c_1_99: y_19 + y_36 + y_65 + y_66 + y_86 + y_99 + y_140 + y_146 + y_160
   + y_178 >= 1
 c_1_100: y_18 + y_32 + y_44 + y_69 + y_100 + y_132 >= 1
 c_1_101: y_7 + y_11 + y_15 + y_36 + y_47 + y_81 + y_101 + y_102 + y_146
   + y_178 >= 1
 c_1_102: y_7 + y_13 + y_15 + y_36 + y_47 + y_66 + y_78 + y_86 + y_101
   + y_102 + y_132 + y_146 + y_160 >= 1
 c_1_103: y_103 + y_139 + y_166 + y_174 + y_179 + y_184 + y_198 >= 1
 c_1_104: y_28 + y_34 + y_61 + y_80 + y_95 + y_104 + y_149 + y_157 + y_170
   + y_195 >= 1
 c_1_105: y_11 + y_45 + y_59 + y_105 >= 1
 c_1_106: y_22 + y_46 + y_106 + y_149 + y_173 + y_181 >= 1
 c_1_107: y_4 + y_85 + y_107 + y_134 + y_158 + y_173 + y_181 >= 1
 c_1_108: y_20 + y_38 + y_43 + y_64 + y_70 + y_83 + y_108 + y_119 + y_129
   + y_145 + y_151 + y_154 >= 1
 c_1_109: y_10 + y_31 + y_109 + y_126 + y_137 + y_169 + y_186 >= 1
 c_1_110: y_61 + y_72 + y_110 + y_159 + y_186 + y_196 >= 1
 c_1_111: y_5 + y_50 + y_73 + y_88 + y_98 + y_111 + y_114 + y_124 + y_133
   + y_140 + y_189 + y_194 >= 1
 c_1_112: y_22 + y_51 + y_77 + y_112 + y_118 >= 1
 c_1_113: y_45 + y_53 + y_54 + y_72 + y_89 + y_113 + y_116 + y_196 >= 1
 c_1_114: y_50 + y_98 + y_111 + y_114 + y_138 >= 1
 c_1_115: y_23 + y_48 + y_93 + y_115 + y_152 + y_166 + y_174 + y_184
   + y_198 >= 1
 c_1_116: y_33 + y_52 + y_54 + y_82 + y_89 + y_113 + y_116 + y_135 + y_187
   >= 1
 c_1_117: y_35 + y_79 + y_117 + y_176 >= 1
 c_1_118: y_28 + y_51 + y_112 + y_118 + y_149 + y_157 >= 1
 c_1_119: y_20 + y_48 + y_93 + y_108 + y_119 + y_121 + y_142 + y_151
   + y_152 >= 1
 c_1_120: y_26 + y_71 + y_120 + y_177 >= 1
 c_1_121: y_23 + y_48 + y_119 + y_121 + y_152 >= 1
 c_1_122: y_87 + y_122 + y_131 + y_143 + y_145 >= 1
 c_1_123: y_42 + y_123 + y_134 + y_158 >= 1
 c_1_124: y_5 + y_50 + y_73 + y_88 + y_98 + y_111 + y_124 + y_133 + y_189
   + y_191 >= 1
 c_1_125: y_80 + y_125 + y_164 >= 1
 c_1_126: y_10 + y_31 + y_53 + y_109 + y_126 + y_186 >= 1
 c_1_127: y_24 + y_57 + y_127 + y_136 + y_150 + y_163 >= 1
 c_1_128: y_58 + y_84 + y_128 + y_148 >= 1
 c_1_129: y_20 + y_38 + y_43 + y_64 + y_70 + y_83 + y_108 + y_129 + y_145
   + y_151 + y_154 + y_193 >= 1
 c_1_130: y_26 + y_27 + y_130 + y_172 + y_177 >= 1
 c_1_131: y_87 + y_122 + y_131 + y_142 + y_151 >= 1
 c_1_132: y_7 + y_13 + y_15 + y_18 + y_47 + y_55 + y_69 + y_78 + y_100
   + y_102 + y_132 + y_199 >= 1
 c_1_133: y_2 + y_50 + y_73 + y_88 + y_98 + y_111 + y_124 + y_133 + y_138
   + y_191 >= 1
 c_1_134: y_4 + y_42 + y_107 + y_123 + y_134 + y_158 + y_181 >= 1
 c_1_135: y_0 + y_33 + y_58 + y_82 + y_116 + y_135 + y_156 + y_187 >= 1
 c_1_136: y_1 + y_57 + y_127 + y_136 + y_150 + y_155 + y_163 + y_188 >= 1
 c_1_137: y_10 + y_109 + y_137 + y_186 >= 1
 c_1_138: y_2 + y_88 + y_114 + y_133 + y_138 + y_153 >= 1
 c_1_139: y_103 + y_139 + y_167 + y_174 + y_179 + y_180 + y_198 >= 1
 c_1_140: y_5 + y_19 + y_50 + y_98 + y_99 + y_111 + y_140 + y_189 + y_194
   >= 1
 c_1_141: y_6 + y_9 + y_22 + y_41 + y_77 + y_141 + y_173 >= 1
 c_1_142: y_48 + y_93 + y_119 + y_131 + y_142 + y_151 + y_152 >= 1
 c_1_143: y_122 + y_143 + y_145 + y_154 >= 1
 c_1_144: y_16 + y_17 + y_67 + y_94 + y_144 + y_154 + y_171 >= 1
 c_1_145: y_43 + y_64 + y_70 + y_108 + y_122 + y_129 + y_143 + y_145
   + y_154 >= 1
 c_1_146: y_11 + y_15 + y_19 + y_36 + y_65 + y_66 + y_81 + y_99 + y_101
   + y_102 + y_146 + y_178 >= 1
 c_1_147: y_75 + y_85 + y_147 >= 1
 c_1_148: y_128 + y_148 >= 1
 c_1_149: y_28 + y_51 + y_104 + y_106 + y_118 + y_149 + y_157 + y_170 >= 1
 c_1_150: y_24 + y_57 + y_127 + y_136 + y_150 + y_163 >= 1
 c_1_151: y_43 + y_48 + y_93 + y_108 + y_119 + y_129 + y_131 + y_142
   + y_151 >= 1
 c_1_152: y_23 + y_48 + y_93 + y_115 + y_119 + y_121 + y_142 + y_152
   + y_166 + y_174 >= 1
 c_1_153: y_2 + y_88 + y_138 + y_153 >= 1
 c_1_154: y_16 + y_43 + y_64 + y_67 + y_70 + y_83 + y_94 + y_108 + y_129
   + y_143 + y_144 + y_145 + y_154 + y_193 >= 1
 c_1_155: y_1 + y_136 + y_155 + y_163 + y_188 >= 1
 c_1_156: y_0 + y_14 + y_56 + y_92 + y_96 + y_135 + y_156 >= 1
 c_1_157: y_28 + y_104 + y_118 + y_149 + y_157 + y_170 >= 1
 c_1_158: y_4 + y_85 + y_107 + y_123 + y_134 + y_158 + y_181 >= 1
 c_1_159: y_34 + y_61 + y_90 + y_110 + y_159 + y_190 + y_196 >= 1
 c_1_160: y_13 + y_15 + y_19 + y_36 + y_66 + y_78 + y_86 + y_99 + y_102
   + y_160 >= 1
 c_1_161: y_12 + y_39 + y_42 + y_76 + y_161 + y_165 >= 1
 c_1_162: y_56 + y_68 + y_96 + y_162 + y_192 >= 1
 c_1_163: y_1 + y_57 + y_127 + y_136 + y_150 + y_155 + y_163 + y_188 >= 1
 c_1_164: y_125 + y_164 >= 1
 c_1_165: y_12 + y_39 + y_42 + y_76 + y_161 + y_165 >= 1
 c_1_166: y_23 + y_103 + y_115 + y_152 + y_166 + y_174 + y_184 + y_198
   >= 1
 c_1_167: y_60 + y_139 + y_167 + y_179 + y_180 >= 1
 c_1_168: y_84 + y_168 >= 1
 c_1_169: y_31 + y_109 + y_169 >= 1
 c_1_170: y_28 + y_34 + y_80 + y_95 + y_104 + y_149 + y_157 + y_170 + y_195
   >= 1
 c_1_171: y_16 + y_17 + y_62 + y_67 + y_75 + y_94 + y_144 + y_171 + y_182
   + y_193 >= 1
 c_1_172: y_27 + y_130 + y_172 + y_177 + y_180 >= 1
 c_1_173: y_4 + y_6 + y_22 + y_46 + y_77 + y_106 + y_107 + y_141 + y_173
   + y_181 >= 1
 c_1_174: y_23 + y_103 + y_115 + y_139 + y_152 + y_166 + y_174 + y_179
   + y_184 + y_198 >= 1
 c_1_175: y_21 + y_25 + y_49 + y_74 + y_175 >= 1
 c_1_176: y_35 + y_79 + y_117 + y_176 >= 1
 c_1_177: y_26 + y_27 + y_120 + y_130 + y_172 + y_177 >= 1
 c_1_178: y_11 + y_19 + y_36 + y_65 + y_66 + y_81 + y_99 + y_101 + y_146
   + y_178 >= 1
 c_1_179: y_103 + y_139 + y_167 + y_174 + y_179 + y_180 >= 1
 c_1_180: y_60 + y_139 + y_167 + y_172 + y_179 + y_180 >= 1
 c_1_181: y_4 + y_46 + y_106 + y_107 + y_134 + y_158 + y_173 + y_181 >= 1
 c_1_182: y_9 + y_16 + y_41 + y_62 + y_64 + y_70 + y_83 + y_94 + y_171
   + y_182 + y_193 >= 1
 c_1_183: y_183 >= 1
 c_1_184: y_23 + y_103 + y_115 + y_166 + y_174 + y_184 + y_198 >= 1
 c_1_185: y_30 + y_60 + y_91 + y_185 >= 1
 c_1_186: y_10 + y_53 + y_72 + y_109 + y_110 + y_126 + y_137 + y_186 >= 1
 c_1_187: y_33 + y_52 + y_54 + y_82 + y_89 + y_116 + y_135 + y_187 + y_188
   >= 1
 c_1_188: y_1 + y_52 + y_89 + y_136 + y_155 + y_163 + y_187 + y_188 >= 1
 c_1_189: y_5 + y_50 + y_73 + y_98 + y_111 + y_124 + y_140 + y_189 + y_194
   >= 1
 c_1_190: y_14 + y_61 + y_90 + y_159 + y_190 + y_196 >= 1
 c_1_191: y_8 + y_37 + y_71 + y_73 + y_88 + y_124 + y_133 + y_191 >= 1
 c_1_192: y_56 + y_68 + y_96 + y_162 + y_192 >= 1
 c_1_193: y_16 + y_38 + y_62 + y_64 + y_70 + y_83 + y_94 + y_129 + y_154
   + y_171 + y_182 + y_193 >= 1
 c_1_194: y_5 + y_19 + y_50 + y_111 + y_140 + y_189 + y_194 >= 1
 c_1_195: y_28 + y_34 + y_40 + y_61 + y_80 + y_90 + y_95 + y_104 + y_170
   + y_195 >= 1
 c_1_196: y_54 + y_72 + y_110 + y_113 + y_159 + y_190 + y_196 >= 1
 c_1_197: y_8 + y_13 + y_44 + y_55 + y_78 + y_197 + y_199 >= 1
 c_1_198: y_23 + y_103 + y_115 + y_139 + y_166 + y_174 + y_184 + y_198
   >= 1
 c_1_199: y_8 + y_13 + y_44 + y_55 + y_69 + y_78 + y_132 + y_197 + y_199
   >= 1
Bounds
 Constant = 1
Binaries
 y_0 y_1 y_2 y_3 y_4 y_5 y_6 y_7 y_8 y_9 y_10 y_11 y_12 y_13 y_14 y_15 y_16
 y_17 y_18 y_19 y_20 y_21 y_22 y_23 y_24 y_25 y_26 y_27 y_28 y_29 y_30 y_31
 y_32 y_33 y_34 y_35 y_36 y_37 y_38 y_39 y_40 y_41 y_42 y_43 y_44 y_45 y_46
 y_47 y_48 y_49 y_50 y_51 y_52 y_53 y_54 y_55 y_56 y_57 y_58 y_59 y_60 y_61
 y_62 y_63 y_64 y_65 y_66 y_67 y_68 y_69 y_70 y_71 y_72 y_73 y_74 y_75 y_76
 y_77 y_78 y_79 y_80 y_81 y_82 y_83 y_84 y_85 y_86 y_87 y_88 y_89 y_90 y_91
 y_92 y_93 y_94 y_95 y_96 y_97 y_98 y_99 y_100 y_101 y_102 y_103 y_104
 y_105 y_106 y_107 y_108 y_109 y_110 y_111 y_112 y_113 y_114 y_115 y_116
 y_117 y_118 y_119 y_120 y_121 y_122 y_123 y_124 y_125 y_126 y_127 y_128
 y_129 y_130 y_131 y_132 y_133 y_134 y_135 y_136 y_137 y_138 y_139 y_140
 y_141 y_142 y_143 y_144 y_145 y_146 y_147 y_148 y_149 y_150 y_151 y_152
 y_153 y_154 y_155 y_156 y_157 y_158 y_159 y_160 y_161 y_162 y_163 y_164
 y_165 y_166 y_167 y_168 y_169 y_170 y_171 y_172 y_173 y_174 y_175 y_176
 y_177 y_178 y_179 y_180 y_181 y_182 y_183 y_184 y_185 y_186 y_187 y_188
 y_189 y_190 y_191 y_192 y_193 y_194 y_195 y_196 y_197 y_198 y_199
End
